p cnf 319 893
a 1 2 3 4 5 6 7 8 9 10 11 12 13 14 15 16 17 18 19 20 21 22 23 24 25 26 27 28 29 30 31 32 0
e 33 34 35 36 37 38 39 40 41 42 43 44 45 46 47 48 49 50 51 52 53 54 55 56 57 58 59 60 61 62 63 64 65 66 67 68 69 70 71 72 73 74 75 76 77 78 79 80 81 82 83 84 85 86 87 88 89 90 91 92 93 94 95 96 97 98 99 100 101 102 103 104 105 106 107 108 109 110 111 112 113 114 115 116 117 118 119 120 121 122 123 124 125 126 127 128 129 130 131 132 133 134 135 136 137 138 139 140 141 142 143 144 145 146 147 148 149 150 151 152 153 154 155 156 157 158 159 160 161 162 163 164 165 166 167 168 169 170 171 172 173 174 175 176 177 178 179 180 181 182 183 184 185 186 187 188 189 190 191 192 193 194 195 196 197 198 199 200 201 202 203 204 205 206 207 208 209 210 211 212 213 214 215 216 217 218 219 220 221 222 223 224 225 226 227 228 229 230 231 232 233 234 235 236 237 238 239 240 241 242 243 244 245 246 247 248 249 250 251 252 253 254 255 256 257 258 259 260 261 262 263 264 265 266 267 268 269 270 271 272 273 274 275 276 277 278 279 280 281 282 283 284 285 286 287 288 289 290 291 292 293 294 295 296 297 298 299 300 301 302 303 304 305 306 307 308 309 310 311 312 313 314 315 316 317 318 319 0
-1 -57 0
-2 -57 0
-3 -57 0
1 2 3 57 0
-4 -58 0
-5 -58 0
-6 -58 0
4 5 6 58 0
57 -59 0
58 -59 0
-7 -59 0
-8 -59 0
7 8 -57 -58 59 0
-7 -8 -60 0
7 8 -60 0
-7 8 60 0
7 -8 60 0
-1 61 0
1 -61 0
-2 -61 -62 0
2 61 -62 0
-2 61 62 0
2 -61 62 0
2 -63 0
61 -63 0
-2 -61 63 0
-63 64 0
63 -64 0
-3 -64 -65 0
3 64 -65 0
-3 64 65 0
3 -64 65 0
3 -66 0
64 -66 0
-3 -64 66 0
-66 67 0
66 -67 0
-60 -68 0
-1 -68 0
1 60 68 0
60 -69 0
1 -69 0
-1 -60 69 0
-68 70 0
-69 70 0
68 69 -70 0
-60 -71 0
62 -71 0
60 -62 71 0
60 -72 0
2 -72 0
-2 -60 72 0
-71 73 0
-72 73 0
71 72 -73 0
-60 -74 0
65 -74 0
60 -65 74 0
60 -75 0
3 -75 0
-3 -60 75 0
-74 76 0
-75 76 0
74 75 -76 0
-9 -70 -77 0
9 70 -77 0
-9 70 77 0
9 -70 77 0
-10 -73 -78 0
10 73 -78 0
-10 73 78 0
10 -73 78 0
-11 -76 -79 0
11 76 -79 0
-11 76 79 0
11 -76 79 0
-77 -80 0
-78 -80 0
-79 -80 0
77 78 79 80 0
-4 81 0
4 -81 0
-5 -81 -82 0
5 81 -82 0
-5 81 82 0
5 -81 82 0
5 -83 0
81 -83 0
-5 -81 83 0
-83 84 0
83 -84 0
-6 -84 -85 0
6 84 -85 0
-6 84 85 0
6 -84 85 0
6 -86 0
84 -86 0
-6 -84 86 0
-86 87 0
86 -87 0
-60 -88 0
4 -88 0
-4 60 88 0
60 -89 0
-4 -89 0
4 -60 89 0
-88 90 0
-89 90 0
88 89 -90 0
-60 -91 0
5 -91 0
-5 60 91 0
60 -92 0
82 -92 0
-60 -82 92 0
-91 93 0
-92 93 0
91 92 -93 0
-60 -94 0
6 -94 0
-6 60 94 0
60 -95 0
85 -95 0
-60 -85 95 0
-94 96 0
-95 96 0
94 95 -96 0
-12 -90 -97 0
12 90 -97 0
-12 90 97 0
12 -90 97 0
-13 -93 -98 0
13 93 -98 0
-13 93 98 0
13 -93 98 0
-14 -96 -99 0
14 96 -99 0
-14 96 99 0
14 -96 99 0
-97 -100 0
-98 -100 0
-99 -100 0
97 98 99 100 0
8 -15 -101 0
-8 15 -101 0
-8 -15 101 0
8 15 101 0
-7 -16 -102 0
7 16 -102 0
7 -16 102 0
-7 16 102 0
80 -103 0
100 -103 0
-101 -103 0
-102 -103 0
-80 -100 101 102 103 0
-15 -16 -104 0
15 16 -104 0
-15 16 104 0
15 -16 104 0
-9 105 0
9 -105 0
-10 -105 -106 0
10 105 -106 0
-10 105 106 0
10 -105 106 0
10 -107 0
105 -107 0
-10 -105 107 0
-107 108 0
107 -108 0
-11 -108 -109 0
11 108 -109 0
-11 108 109 0
11 -108 109 0
11 -110 0
108 -110 0
-11 -108 110 0
-110 111 0
110 -111 0
-104 -112 0
-9 -112 0
9 104 112 0
104 -113 0
9 -113 0
-9 -104 113 0
-112 114 0
-113 114 0
112 113 -114 0
-104 -115 0
106 -115 0
104 -106 115 0
104 -116 0
10 -116 0
-10 -104 116 0
-115 117 0
-116 117 0
115 116 -117 0
-104 -118 0
109 -118 0
104 -109 118 0
104 -119 0
11 -119 0
-11 -104 119 0
-118 120 0
-119 120 0
118 119 -120 0
-17 -114 -121 0
17 114 -121 0
-17 114 121 0
17 -114 121 0
-18 -117 -122 0
18 117 -122 0
-18 117 122 0
18 -117 122 0
-19 -120 -123 0
19 120 -123 0
-19 120 123 0
19 -120 123 0
-121 -124 0
-122 -124 0
-123 -124 0
121 122 123 124 0
-12 125 0
12 -125 0
-13 -125 -126 0
13 125 -126 0
-13 125 126 0
13 -125 126 0
13 -127 0
125 -127 0
-13 -125 127 0
-127 128 0
127 -128 0
-14 -128 -129 0
14 128 -129 0
-14 128 129 0
14 -128 129 0
14 -130 0
128 -130 0
-14 -128 130 0
-130 131 0
130 -131 0
-104 -132 0
12 -132 0
-12 104 132 0
104 -133 0
-12 -133 0
12 -104 133 0
-132 134 0
-133 134 0
132 133 -134 0
-104 -135 0
13 -135 0
-13 104 135 0
104 -136 0
126 -136 0
-104 -126 136 0
-135 137 0
-136 137 0
135 136 -137 0
-104 -138 0
14 -138 0
-14 104 138 0
104 -139 0
129 -139 0
-104 -129 139 0
-138 140 0
-139 140 0
138 139 -140 0
-20 -134 -141 0
20 134 -141 0
-20 134 141 0
20 -134 141 0
-21 -137 -142 0
21 137 -142 0
-21 137 142 0
21 -137 142 0
-22 -140 -143 0
22 140 -143 0
-22 140 143 0
22 -140 143 0
-141 -144 0
-142 -144 0
-143 -144 0
141 142 143 144 0
16 -23 -145 0
-16 23 -145 0
-16 -23 145 0
16 23 145 0
-15 -24 -146 0
15 24 -146 0
15 -24 146 0
-15 24 146 0
124 -147 0
144 -147 0
-145 -147 0
-146 -147 0
-124 -144 145 146 147 0
-23 -24 -148 0
23 24 -148 0
-23 24 148 0
23 -24 148 0
-17 149 0
17 -149 0
-18 -149 -150 0
18 149 -150 0
-18 149 150 0
18 -149 150 0
18 -151 0
149 -151 0
-18 -149 151 0
-151 152 0
151 -152 0
-19 -152 -153 0
19 152 -153 0
-19 152 153 0
19 -152 153 0
19 -154 0
152 -154 0
-19 -152 154 0
-154 155 0
154 -155 0
-148 -156 0
-17 -156 0
17 148 156 0
148 -157 0
17 -157 0
-17 -148 157 0
-156 158 0
-157 158 0
156 157 -158 0
-148 -159 0
150 -159 0
148 -150 159 0
148 -160 0
18 -160 0
-18 -148 160 0
-159 161 0
-160 161 0
159 160 -161 0
-148 -162 0
153 -162 0
148 -153 162 0
148 -163 0
19 -163 0
-19 -148 163 0
-162 164 0
-163 164 0
162 163 -164 0
-25 -158 -165 0
25 158 -165 0
-25 158 165 0
25 -158 165 0
-26 -161 -166 0
26 161 -166 0
-26 161 166 0
26 -161 166 0
-27 -164 -167 0
27 164 -167 0
-27 164 167 0
27 -164 167 0
-165 -168 0
-166 -168 0
-167 -168 0
165 166 167 168 0
-20 169 0
20 -169 0
-21 -169 -170 0
21 169 -170 0
-21 169 170 0
21 -169 170 0
21 -171 0
169 -171 0
-21 -169 171 0
-171 172 0
171 -172 0
-22 -172 -173 0
22 172 -173 0
-22 172 173 0
22 -172 173 0
22 -174 0
172 -174 0
-22 -172 174 0
-174 175 0
174 -175 0
-148 -176 0
20 -176 0
-20 148 176 0
148 -177 0
-20 -177 0
20 -148 177 0
-176 178 0
-177 178 0
176 177 -178 0
-148 -179 0
21 -179 0
-21 148 179 0
148 -180 0
170 -180 0
-148 -170 180 0
-179 181 0
-180 181 0
179 180 -181 0
-148 -182 0
22 -182 0
-22 148 182 0
148 -183 0
173 -183 0
-148 -173 183 0
-182 184 0
-183 184 0
182 183 -184 0
-28 -178 -185 0
28 178 -185 0
-28 178 185 0
28 -178 185 0
-29 -181 -186 0
29 181 -186 0
-29 181 186 0
29 -181 186 0
-30 -184 -187 0
30 184 -187 0
-30 184 187 0
30 -184 187 0
-185 -188 0
-186 -188 0
-187 -188 0
185 186 187 188 0
24 -31 -189 0
-24 31 -189 0
-24 -31 189 0
24 31 189 0
-23 -32 -190 0
23 32 -190 0
23 -32 190 0
-23 32 190 0
168 -191 0
188 -191 0
-189 -191 0
-190 -191 0
-168 -188 189 190 191 0
59 -192 0
103 -192 0
147 -192 0
191 -192 0
-59 -103 -147 -191 192 0
-33 -193 0
-34 -193 0
-35 -193 0
33 34 35 193 0
-36 -194 0
-37 -194 0
-38 -194 0
36 37 38 194 0
193 -195 0
194 -195 0
-39 -195 0
-40 -195 0
39 40 -193 -194 195 0
-39 -40 -196 0
39 40 -196 0
-39 40 196 0
39 -40 196 0
-33 197 0
33 -197 0
-34 -197 -198 0
34 197 -198 0
-34 197 198 0
34 -197 198 0
34 -199 0
197 -199 0
-34 -197 199 0
-199 200 0
199 -200 0
-35 -200 -201 0
35 200 -201 0
-35 200 201 0
35 -200 201 0
35 -202 0
200 -202 0
-35 -200 202 0
-202 203 0
202 -203 0
-196 -204 0
-33 -204 0
33 196 204 0
196 -205 0
33 -205 0
-33 -196 205 0
-204 206 0
-205 206 0
204 205 -206 0
-196 -207 0
198 -207 0
196 -198 207 0
196 -208 0
34 -208 0
-34 -196 208 0
-207 209 0
-208 209 0
207 208 -209 0
-196 -210 0
201 -210 0
196 -201 210 0
196 -211 0
35 -211 0
-35 -196 211 0
-210 212 0
-211 212 0
210 211 -212 0
-41 -206 -213 0
41 206 -213 0
-41 206 213 0
41 -206 213 0
-42 -209 -214 0
42 209 -214 0
-42 209 214 0
42 -209 214 0
-43 -212 -215 0
43 212 -215 0
-43 212 215 0
43 -212 215 0
-213 -216 0
-214 -216 0
-215 -216 0
213 214 215 216 0
-36 217 0
36 -217 0
-37 -217 -218 0
37 217 -218 0
-37 217 218 0
37 -217 218 0
37 -219 0
217 -219 0
-37 -217 219 0
-219 220 0
219 -220 0
-38 -220 -221 0
38 220 -221 0
-38 220 221 0
38 -220 221 0
38 -222 0
220 -222 0
-38 -220 222 0
-222 223 0
222 -223 0
-196 -224 0
36 -224 0
-36 196 224 0
196 -225 0
-36 -225 0
36 -196 225 0
-224 226 0
-225 226 0
224 225 -226 0
-196 -227 0
37 -227 0
-37 196 227 0
196 -228 0
218 -228 0
-196 -218 228 0
-227 229 0
-228 229 0
227 228 -229 0
-196 -230 0
38 -230 0
-38 196 230 0
196 -231 0
221 -231 0
-196 -221 231 0
-230 232 0
-231 232 0
230 231 -232 0
-44 -226 -233 0
44 226 -233 0
-44 226 233 0
44 -226 233 0
-45 -229 -234 0
45 229 -234 0
-45 229 234 0
45 -229 234 0
-46 -232 -235 0
46 232 -235 0
-46 232 235 0
46 -232 235 0
-233 -236 0
-234 -236 0
-235 -236 0
233 234 235 236 0
40 -47 -237 0
-40 47 -237 0
-40 -47 237 0
40 47 237 0
-39 -48 -238 0
39 48 -238 0
39 -48 238 0
-39 48 238 0
216 -239 0
236 -239 0
-237 -239 0
-238 -239 0
-216 -236 237 238 239 0
-47 -48 -240 0
47 48 -240 0
-47 48 240 0
47 -48 240 0
-41 241 0
41 -241 0
-42 -241 -242 0
42 241 -242 0
-42 241 242 0
42 -241 242 0
42 -243 0
241 -243 0
-42 -241 243 0
-243 244 0
243 -244 0
-43 -244 -245 0
43 244 -245 0
-43 244 245 0
43 -244 245 0
43 -246 0
244 -246 0
-43 -244 246 0
-246 247 0
246 -247 0
-240 -248 0
-41 -248 0
41 240 248 0
240 -249 0
41 -249 0
-41 -240 249 0
-248 250 0
-249 250 0
248 249 -250 0
-240 -251 0
242 -251 0
240 -242 251 0
240 -252 0
42 -252 0
-42 -240 252 0
-251 253 0
-252 253 0
251 252 -253 0
-240 -254 0
245 -254 0
240 -245 254 0
240 -255 0
43 -255 0
-43 -240 255 0
-254 256 0
-255 256 0
254 255 -256 0
-49 -250 -257 0
49 250 -257 0
-49 250 257 0
49 -250 257 0
-50 -253 -258 0
50 253 -258 0
-50 253 258 0
50 -253 258 0
-51 -256 -259 0
51 256 -259 0
-51 256 259 0
51 -256 259 0
-257 -260 0
-258 -260 0
-259 -260 0
257 258 259 260 0
-44 261 0
44 -261 0
-45 -261 -262 0
45 261 -262 0
-45 261 262 0
45 -261 262 0
45 -263 0
261 -263 0
-45 -261 263 0
-263 264 0
263 -264 0
-46 -264 -265 0
46 264 -265 0
-46 264 265 0
46 -264 265 0
46 -266 0
264 -266 0
-46 -264 266 0
-266 267 0
266 -267 0
-240 -268 0
44 -268 0
-44 240 268 0
240 -269 0
-44 -269 0
44 -240 269 0
-268 270 0
-269 270 0
268 269 -270 0
-240 -271 0
45 -271 0
-45 240 271 0
240 -272 0
262 -272 0
-240 -262 272 0
-271 273 0
-272 273 0
271 272 -273 0
-240 -274 0
46 -274 0
-46 240 274 0
240 -275 0
265 -275 0
-240 -265 275 0
-274 276 0
-275 276 0
274 275 -276 0
-52 -270 -277 0
52 270 -277 0
-52 270 277 0
52 -270 277 0
-53 -273 -278 0
53 273 -278 0
-53 273 278 0
53 -273 278 0
-54 -276 -279 0
54 276 -279 0
-54 276 279 0
54 -276 279 0
-277 -280 0
-278 -280 0
-279 -280 0
277 278 279 280 0
48 -55 -281 0
-48 55 -281 0
-48 -55 281 0
48 55 281 0
-47 -56 -282 0
47 56 -282 0
47 -56 282 0
-47 56 282 0
260 -283 0
280 -283 0
-281 -283 0
-282 -283 0
-260 -280 281 282 283 0
195 -284 0
239 -284 0
283 -284 0
-195 -239 -283 284 0
-25 -33 -285 0
25 33 -285 0
-25 33 285 0
25 -33 285 0
-26 -34 -286 0
26 34 -286 0
-26 34 286 0
26 -34 286 0
-27 -35 -287 0
27 35 -287 0
-27 35 287 0
27 -35 287 0
-285 -288 0
-286 -288 0
-287 -288 0
285 286 287 288 0
-28 -36 -289 0
28 36 -289 0
-28 36 289 0
28 -36 289 0
-29 -37 -290 0
29 37 -290 0
-29 37 290 0
29 -37 290 0
-30 -38 -291 0
30 38 -291 0
-30 38 291 0
30 -38 291 0
-289 -292 0
-290 -292 0
-291 -292 0
289 290 291 292 0
-31 -39 -293 0
31 39 -293 0
-31 39 293 0
31 -39 293 0
-32 -40 -294 0
32 40 -294 0
-32 40 294 0
32 -40 294 0
288 -295 0
292 -295 0
-293 -295 0
-294 -295 0
-288 -292 293 294 295 0
-25 -41 -296 0
25 41 -296 0
-25 41 296 0
25 -41 296 0
-26 -42 -297 0
26 42 -297 0
-26 42 297 0
26 -42 297 0
-27 -43 -298 0
27 43 -298 0
-27 43 298 0
27 -43 298 0
-296 -299 0
-297 -299 0
-298 -299 0
296 297 298 299 0
-28 -44 -300 0
28 44 -300 0
-28 44 300 0
28 -44 300 0
-29 -45 -301 0
29 45 -301 0
-29 45 301 0
29 -45 301 0
-30 -46 -302 0
30 46 -302 0
-30 46 302 0
30 -46 302 0
-300 -303 0
-301 -303 0
-302 -303 0
300 301 302 303 0
-31 -47 -304 0
31 47 -304 0
-31 47 304 0
31 -47 304 0
-32 -48 -305 0
32 48 -305 0
-32 48 305 0
32 -48 305 0
299 -306 0
303 -306 0
-304 -306 0
-305 -306 0
-299 -303 304 305 306 0
-25 -49 -307 0
25 49 -307 0
-25 49 307 0
25 -49 307 0
-26 -50 -308 0
26 50 -308 0
-26 50 308 0
26 -50 308 0
-27 -51 -309 0
27 51 -309 0
-27 51 309 0
27 -51 309 0
-307 -310 0
-308 -310 0
-309 -310 0
307 308 309 310 0
-28 -52 -311 0
28 52 -311 0
-28 52 311 0
28 -52 311 0
-29 -53 -312 0
29 53 -312 0
-29 53 312 0
29 -53 312 0
-30 -54 -313 0
30 54 -313 0
-30 54 313 0
30 -54 313 0
-311 -314 0
-312 -314 0
-313 -314 0
311 312 313 314 0
-31 -55 -315 0
31 55 -315 0
-31 55 315 0
31 -55 315 0
-32 -56 -316 0
32 56 -316 0
-32 56 316 0
32 -56 316 0
310 -317 0
314 -317 0
-315 -317 0
-316 -317 0
-310 -314 315 316 317 0
-295 318 0
-306 318 0
-317 318 0
295 306 317 -318 0
284 -319 0
318 -319 0
-284 -318 319 0
-192 319 0
